NAME: map4_180
TYPE: TSP
COMMENT: autogenerated using a wonderful map creator
DIMENSION: 210
EDGE_WEIGHT_TYPE: EUC_2D
NODE_COORD_SECTION
1 9.0 62.0
2 10.0 62.0
3 11.0 62.0
4 46.0 58.0
5 46.0 59.0
6 46.0 60.0
7 34.0 6.0
8 34.0 5.0
9 34.0 4.0
10 58.0 22.0
11 58.0 21.0
12 58.0 20.0
13 6.0 7.0
14 6.0 6.0
15 6.0 5.0
16 12.0 62.0
17 13.0 62.0
18 14.0 62.0
19 46.0 61.0
20 46.0 62.0
21 46.0 63.0
22 58.0 19.0
23 58.0 18.0
24 58.0 17.0
25 34.0 3.0
26 34.0 2.0
27 34.0 1.0
28 6.0 4.0
29 6.0 3.0
30 6.0 2.0
31 9.0 63.0
32 10.0 63.0
33 11.0 63.0
34 47.0 58.0
35 47.0 59.0
36 47.0 60.0
37 33.0 6.0
38 33.0 5.0
39 33.0 4.0
40 57.0 22.0
41 57.0 21.0
42 57.0 20.0
43 7.0 7.0
44 7.0 6.0
45 7.0 5.0
46 12.0 63.0
47 13.0 63.0
48 14.0 63.0
49 47.0 61.0
50 47.0 62.0
51 47.0 63.0
52 57.0 19.0
53 57.0 18.0
54 57.0 17.0
55 33.0 3.0
56 33.0 2.0
57 33.0 1.0
58 7.0 4.0
59 7.0 3.0
60 7.0 2.0
61 23.0 4.0
62 10.0 34.0
63 47.0 7.0
64 39.0 42.0
65 11.0 5.0
66 43.0 3.0
67 46.0 2.0
68 52.0 15.0
69 37.0 42.0
70 43.0 21.0
71 9.0 35.0
72 13.0 17.0
73 55.0 59.0
74 61.0 63.0
75 11.0 44.0
76 2.0 41.0
77 62.0 37.0
78 15.0 53.0
79 49.0 55.0
80 46.0 13.0
81 23.0 45.0
82 43.0 23.0
83 21.0 57.0
84 55.0 52.0
85 62.0 3.0
86 38.0 18.0
87 62.0 12.0
88 18.0 21.0
89 10.0 38.0
90 53.0 18.0
91 30.0 59.0
92 34.0 23.0
93 25.0 54.0
94 29.0 36.0
95 41.0 1.0
96 2.0 61.0
97 59.0 34.0
98 14.0 44.0
99 25.0 11.0
100 21.0 4.0
101 62.0 5.0
102 4.0 52.0
103 10.0 31.0
104 22.0 60.0
105 9.0 42.0
106 47.0 4.0
107 31.0 17.0
108 44.0 51.0
109 5.0 25.0
110 49.0 59.0
111 21.0 52.0
112 59.0 36.0
113 27.0 31.0
114 13.0 14.0
115 32.0 27.0
116 42.0 38.0
117 30.0 45.0
118 10.0 42.0
119 22.0 7.0
120 62.0 25.0
121 46.0 29.0
122 49.0 34.0
123 17.0 11.0
124 15.0 41.0
125 14.0 21.0
126 49.0 61.0
127 61.0 26.0
128 52.0 23.0
129 19.0 20.0
130 42.0 31.0
131 18.0 9.0
132 3.0 51.0
133 10.0 44.0
134 12.0 17.0
135 38.0 36.0
136 52.0 62.0
137 4.0 22.0
138 12.0 35.0
139 6.0 49.0
140 55.0 33.0
141 18.0 57.0
142 47.0 38.0
143 33.0 21.0
144 27.0 35.0
145 25.0 17.0
146 50.0 37.0
147 18.0 11.0
148 7.0 11.0
149 54.0 62.0
150 63.0 10.0
151 31.0 5.0
152 45.0 4.0
153 19.0 49.0
154 52.0 9.0
155 18.0 41.0
156 7.0 41.0
157 36.0 31.0
158 11.0 11.0
159 25.0 10.0
160 16.0 7.0
161 42.0 26.0
162 27.0 37.0
163 62.0 13.0
164 29.0 10.0
165 38.0 22.0
166 17.0 54.0
167 9.0 50.0
168 26.0 29.0
169 4.0 63.0
170 29.0 37.0
171 4.0 17.0
172 35.0 50.0
173 62.0 34.0
174 59.0 26.0
175 17.0 20.0
176 59.0 44.0
177 20.0 55.0
178 17.0 38.0
179 30.0 35.0
180 21.0 63.0
181 26.0 22.0
182 29.0 21.0
183 9.0 52.0
184 15.0 31.0
185 38.0 33.0
186 60.0 63.0
187 21.0 26.0
188 55.0 21.0
189 33.0 55.0
190 59.0 37.0
191 34.0 47.0
192 10.0 25.0
193 39.0 61.0
194 29.0 60.0
195 46.0 12.0
196 31.0 2.0
197 4.0 49.0
198 9.0 45.0
199 13.0 27.0
200 38.0 26.0
201 59.0 58.0
202 21.0 19.0
203 62.0 29.0
204 52.0 61.0
205 57.0 5.0
206 47.0 37.0
207 60.0 31.0
208 21.0 3.0
209 50.0 39.0
210 38.0 28.0
211 58.0 61.0
212 12.0 9.0
213 61.0 57.0
214 59.0 5.0
215 4.0 14.0
216 30.0 14.0
217 47.0 30.0
218 27.0 27.0
219 10.0 11.0
220 17.0 26.0
221 6.0 53.0
222 54.0 54.0
223 61.0 41.0
224 50.0 50.0
225 13.0 31.0
226 6.0 25.0
227 30.0 53.0
228 44.0 52.0
229 39.0 31.0
230 2.0 46.0
231 33.0 61.0
232 30.0 7.0
233 27.0 20.0
234 5.0 17.0
235 14.0 29.0
236 22.0 51.0
237 60.0 35.0
238 3.0 47.0
239 21.0 62.0
240 59.0 46.0
START_DEPOT_SECTION
1
2
3
4
5
6
7
8
9
10
11
12
13
14
15
16
17
18
19
20
21
22
23
24
25
26
27
28
29
30
-1
END_DEPOT_SECTION
31
32
33
34
35
36
37
38
39
40
41
42
43
44
45
46
47
48
49
50
51
52
53
54
55
56
57
58
59
60
-1
EOF
